[runlim] version:		2.0.0rc12
[runlim] host:			ap-Precision-7550
[runlim] time limit:		311040000 seconds
[runlim] real time limit:	600 seconds
[runlim] space limit:		14000 MB
[runlim] argv[0]:		python3
[runlim] argv[1]:		-u
[runlim] argv[2]:		mip_no.py
[runlim] argv[3]:		graph05
[runlim] start:			Wed Mar 25 02:42:37 2026
[runlim] child:			67974
--- Building MIP model for 200 variables ---
--- Solving with CPLEX MIP ---
Version identifier: 22.1.1.0 | 2022-11-28 | 9160aff4d
CPXPARAM_Read_DataCheck                          1
CPXPARAM_MIP_Tolerances_MIPGap                   0
Legacy callback                                  i
Tried aggregator 1 time.
Infeasibility row 'c181':  0  = 1.
Presolve time = 6.47 sec. (11230.55 ticks)

Root node processing (before b&c):
  Real time             =    6.52 sec. (11278.87 ticks)
Parallel b&c, 12 threads:
  Real time             =    0.00 sec. (0.00 ticks)
  Sync time (average)   =    0.00 sec.
  Wait time (average)   =    0.00 sec.
                          ------------
Total (root+branch&cut) =    6.52 sec. (11278.87 ticks)
CPLEX Error  1217: No solution exists.
No solution found or the problem is infeasible.
Total time: 8.25s
Memory used: 100.88 MB
==============================
[runlim] end:			Wed Mar 25 02:42:45 2026
[runlim] status:		ok
[runlim] result:		0
[runlim] children:		1
[runlim] processes:		2
[runlim] real:			8.30 seconds
[runlim] time:			14.87 seconds
[runlim] space:			235 MB
[runlim] load:			3.03 maximum
[runlim] samples:		83
